Navios = {1 2 3 4 5 6 7 8 9 10 11 12 13 14 15};
Mares = {1 2 3 4 5 6 7 8 9 10 11 12 13 14 15 16 17 18 19 20};
Cargas = {"Bauxita" "Alumina" "Manganes" "Ferro"};
Bercos = {1 2 3 4};

vazao = [5 4 6 4];
chegada = [1 1 3 5 5 6 7 9 9 10 12 12 13 14 14];
estoque = [16 17 18 16];
consumo = [3 3 2 3];
carregamento =[
[8	0	0	0]
[0	5	0	0]
[0	0	0	5]
[0	0	8	0]
[0	10	0	0]
[0	0	0	8]
[0	12	0	0]
[12	0	0	0]
[0	0	0	17]
[0	0	9	0]
[16	0	0	0]
[0	0	0	17]
[0	0	14	0]
[15	0	0	0]
[0	28	0	0]];
